treewidth/data/SymplecticDualPolarGraph_4_3.gr
p tw 40 240
1 2
1 13
1 24
1 35
1 36
1 37
1 3
1 6
1 20
1 26
1 28
1 33
2 13
2 24
2 40
2 4
2 7
2 10
2 12
2 16
2 23
2 29
2 31
13 24
13 39
13 5
13 8
13 9
13 14
13 18
13 21
13 25
13 30
24 38
24 11
24 15
24 17
24 19
24 22
24 27
24 32
24 34
35 36
35 37
35 38
35 39
35 40
35 10
35 14
35 16
35 21
35 32
35 34
36 37
36 5
36 8
36 11
36 12
36 17
36 19
36 23
36 29
36 30
37 4
37 7
37 9
37 15
37 18
37 22
37 25
37 27
37 31
38 39
38 40
38 3
38 4
38 5
38 6
38 7
38 8
38 19
38 27
39 40
39 9
39 15
39 20
39 22
39 23
39 26
39 29
39 30
40 11
40 12
40 17
40 18
40 25
40 28
40 31
40 33
3 4
3 5
3 9
3 10
3 11
3 12
3 14
3 15
3 26
3 33
4 5
4 16
4 18
4 22
4 28
4 29
4 30
4 32
5 17
5 20
5 21
5 23
5 25
5 31
5 34
6 7
6 8
6 9
6 12
6 16
6 17
6 20
6 21
6 22
6 28
7 8
7 10
7 15
7 23
7 25
7 30
7 33
7 34
8 11
8 14
8 18
8 26
8 29
8 31
8 32
9 10
9 11
9 16
9 17
9 27
9 30
9 31
10 11
10 18
10 19
10 20
10 21
10 23
10 32
11 22
11 25
11 28
11 29
11 34
12 14
12 15
12 19
12 21
12 22
12 30
12 31
14 15
14 16
14 18
14 23
14 27
14 28
14 34
15 17
15 20
15 25
15 29
15 32
16 17
16 19
16 25
16 26
16 29
16 34
17 18
17 23
17 32
17 33
18 19
18 20
18 22
18 33
19 20
19 25
19 26
19 27
19 30
20 28
20 29
20 31
20 34
21 22
21 25
21 27
21 29
21 32
21 33
22 23
22 26
22 34
23 26
23 27
23 28
25 26
25 28
26 31
26 32
26 33
27 28
27 29
27 31
27 33
28 30
28 32
29 33
30 32
30 33
30 34
31 32
31 34
33 34
