treewidth/data/SymplecticDualPolarGraph_4_3.td
c width = 27, time = 3.410749
s td 5 28 40
b 1 1 3 5 6 8 9 10 13 15 16 18 19 20 22 23 25 26 28 29 30 31 32 33 34 35 38 39 40
b 2 1 2 3 5 6 8 9 10 13 15 16 18 19 22 23 25 27 28 29 30 31 32 33 34 35 36 38 40
b 3 1 2 3 4 5 6 7 8 9 10 15 16 18 22 23 25 27 28 29 30 31 32 33 34 35 36 37 38
b 4 1 2 3 5 6 8 9 10 11 13 15 16 17 18 19 22 23 24 25 27 28 29 32 33 34 36 38 40
b 5 2 3 5 6 8 10 12 13 14 15 16 18 19 21 22 23 25 27 28 29 30 31 32 33 34 35 36 40
2 3
2 4
2 5
1 2
